(set-option :produce-models true); benchmark generated from python API
(set-info :status unknown)
(declare-fun l_1_0_6 () Real)
(declare-fun l_1_0_5 () Real)
(declare-fun l_1_0_3 () Real)
(declare-fun l_1_0_2 () Real)
(declare-fun l_1_0_11 () Real)
(declare-fun l_1_0_10 () Real)
(declare-fun _a_0_ () Real)
(declare-fun l_1_0_14 () Real)
(declare-fun l_1_0_13 () Real)
(declare-fun l_1_0_12 () Real)
(declare-fun _a_1_ () Real)
(declare-fun l_1_0_9 () Real)
(declare-fun l_1_0_8 () Real)
(declare-fun l_1_0_7 () Real)
(declare-fun l_1_0_4 () Real)
(declare-fun l_1_0_1 () Real)
(declare-fun l_1_1_9 () Real)
(declare-fun l_1_1_8 () Real)
(declare-fun l_1_1_7 () Real)
(declare-fun l_1_1_6 () Real)
(declare-fun l_1_1_5 () Real)
(declare-fun l_1_1_4 () Real)
(declare-fun l_1_1_3 () Real)
(declare-fun l_1_1_2 () Real)
(declare-fun l_1_1_15 () Real)
(declare-fun l_1_1_14 () Real)
(declare-fun l_1_1_13 () Real)
(declare-fun l_1_1_12 () Real)
(declare-fun l_1_1_11 () Real)
(declare-fun l_1_1_10 () Real)
(declare-fun l_1_1_1 () Real)
(declare-fun l_1_1_17 () Real)
(declare-fun l_1_1_16 () Real)
(declare-fun l_1_1_20 () Real)
(declare-fun l_1_1_19 () Real)
(declare-fun l_1_1_18 () Real)
(declare-fun l_1_2_9 () Real)
(declare-fun l_1_2_7 () Real)
(declare-fun l_1_2_5 () Real)
(declare-fun l_1_2_4 () Real)
(declare-fun l_1_2_3 () Real)
(declare-fun l_1_2_17 () Real)
(declare-fun l_1_2_16 () Real)
(declare-fun l_1_2_10 () Real)
(declare-fun l_1_2_2 () Real)
(declare-fun l_1_2_13 () Real)
(declare-fun l_1_2_12 () Real)
(declare-fun l_1_2_11 () Real)
(declare-fun l_1_2_19 () Real)
(declare-fun l_1_2_18 () Real)
(declare-fun l_1_2_20 () Real)
(declare-fun l_1_2_8 () Real)
(declare-fun l_1_2_6 () Real)
(declare-fun l_1_2_15 () Real)
(declare-fun l_1_2_14 () Real)
(declare-fun l_1_2_1 () Real)
(assert
 (let ((?x49 (* 2.0 l_1_0_2)))
 (let ((?x1050 (+ (- (- _a_0_ (* l_1_0_10 l_1_0_10)) (* l_1_0_11 l_1_0_11)) ?x49)))
 (= (+ (+ (+ ?x1050 l_1_0_3) l_1_0_5) l_1_0_6) 0.0))))
(assert
 (let ((?x49 (* 2.0 l_1_0_2)))
 (let ((?x1009 (* l_1_0_14 l_1_0_14)))
 (let ((?x333 (- (- (- _a_1_ (* l_1_0_12 l_1_0_12)) (* l_1_0_13 l_1_0_13)) ?x1009)))
 (= (- (- (- (- ?x333 ?x49) l_1_0_3) l_1_0_5) l_1_0_6) 0.0)))))
(assert
 (let ((?x930 (* l_1_0_9 l_1_0_9)))
 (let ((?x961 (- (- (- (- l_1_0_1) (* 1.0 l_1_0_2)) (* 1.0 l_1_0_3)) l_1_0_4)))
 (let ((?x898 (- (- (- (- ?x961 (* 1.0 l_1_0_5)) (* 1.0 l_1_0_6)) l_1_0_7) l_1_0_8)))
 (= (+ (- ?x898 ?x930) 1.0) 0.0)))))
(assert
 (= (- l_1_0_2) 0.0))
(assert
 (let ((?x49 (* 2.0 l_1_0_2)))
 (= ?x49 0.0)))
(assert
 (= (- l_1_0_2) 0.0))
(assert
 (= (* (* (- 2.0) l_1_0_10) l_1_0_9) 0.0))
(assert
 (= (* (* (- 2.0) l_1_0_12) l_1_0_9) 0.0))
(assert
 (let ((?x795 (- (* (* (- 2.0) l_1_0_10) l_1_0_12) (* (* 2.0 l_1_0_11) l_1_0_13))))
 (= ?x795 0.0)))
(assert
 (>= l_1_0_1 0.0))
(assert
 (>= l_1_0_2 0.0))
(assert
 (>= l_1_0_3 0.0))
(assert
 (>= l_1_0_4 0.0))
(assert
 (>= l_1_0_5 0.0))
(assert
 (>= l_1_0_6 0.0))
(assert
 (>= l_1_0_7 0.0))
(assert
 (>= l_1_0_8 0.0))
(assert
 (>= l_1_0_9 0.0))
(assert
 (>= l_1_0_11 0.0))
(assert
 (>= l_1_0_14 0.0))
(assert
 (let ((?x732 (* l_1_1_15 l_1_1_15)))
 (let ((?x726 (+ (- (- (- l_1_1_1) (* 1.0 l_1_1_10)) l_1_1_11) (* 1.0 l_1_1_12))))
 (let ((?x737 (- (- (- (+ ?x726 (* 1.0 l_1_1_13)) l_1_1_14) ?x732) (* 1.0 l_1_1_2))))
 (let ((?x747 (+ (- (- ?x737 (* 1.0 l_1_1_3)) (* 1.0 l_1_1_4)) (* 1.0 l_1_1_5))))
 (let ((?x678 (+ (+ (- (- ?x747 (* 1.0 l_1_1_6)) l_1_1_7) (* 1.0 l_1_1_8)) (* 1.0 l_1_1_9))))
 (= (+ ?x678 (/ 15.0 4.0)) 0.0)))))))
(assert
 (let ((?x636 (* 2.0 l_1_1_4)))
 (let ((?x22 (* l_1_1_17 l_1_1_17)))
 (let ((?x20 (* l_1_1_16 l_1_1_16)))
 (let ((?x34 (* _a_0_ l_1_1_6)))
 (let ((?x630 (- (- (* (- _a_0_) l_1_1_10) (* _a_0_ l_1_1_2)) (* (* 2.0 _a_0_) l_1_1_3))))
 (let ((?x635 (- (- (- ?x630 ?x34) (* l_1_1_12 (- 1.0 (* 1.0 _a_0_)))) l_1_1_13)))
 (let ((?x637 (- (- (+ (- (- ?x635 ?x20) ?x22) ?x636) l_1_1_5) (* l_1_1_8 (- 1.0 (* 1.0 _a_0_))))))
 (= (+ (- ?x637 l_1_1_9) 1.0) 0.0)))))))))
(assert
 (let ((?x636 (* 2.0 l_1_1_4)))
 (let ((?x351 (* l_1_1_20 l_1_1_20)))
 (let ((?x349 (* l_1_1_19 l_1_1_19)))
 (let ((?x347 (* l_1_1_18 l_1_1_18)))
 (let ((?x409 (* _a_1_ l_1_1_6)))
 (let ((?x408 (- (- (* (- _a_1_) l_1_1_10) (* _a_1_ l_1_1_2)) (* (* 2.0 _a_1_) l_1_1_3))))
 (let ((?x345 (- (- (- ?x408 ?x409) (* l_1_1_12 (- 1.0 (* 1.0 _a_1_)))) l_1_1_13)))
 (let ((?x356 (- (- (+ (- (- (- ?x345 ?x347) ?x349) ?x351) ?x636) l_1_1_5) (* l_1_1_8 (- 1.0 (* 1.0 _a_1_))))))
 (= (+ (- ?x356 l_1_1_9) 1.0) 0.0))))))))))
(assert
 (= (- (* (* (- 2.0) l_1_1_15) l_1_1_18) 4.0) 0.0))
(assert
 (let ((?x132 (- (- (* (- _a_0_) l_1_1_12) (* _a_0_ l_1_1_8)) (* (* l_1_1_3 _a_0_) _a_0_))))
 (= (- ?x132 l_1_1_4) 0.0)))
(assert
 (let ((?x636 (* 2.0 l_1_1_4)))
 (let ((?x190 (- (* (* (* (- 2.0) _a_0_) _a_1_) l_1_1_3) (* l_1_1_12 (+ _a_0_ _a_1_)))))
 (= (- (- ?x190 ?x636) (* l_1_1_8 (+ _a_0_ _a_1_))) 0.0))))
(assert
 (let ((?x108 (- (- (* (- _a_1_) l_1_1_12) (* _a_1_ l_1_1_8)) (* (* l_1_1_3 _a_1_) _a_1_))))
 (= (- ?x108 l_1_1_4) 0.0)))
(assert
 (= (* (* (- 2.0) l_1_1_15) l_1_1_16) 0.0))
(assert
 (let ((?x65 (- (* (* (- 2.0) l_1_1_16) l_1_1_18) (* (* 2.0 l_1_1_17) l_1_1_19))))
 (= ?x65 0.0)))
(assert
 (>= l_1_1_1 0.0))
(assert
 (>= l_1_1_2 0.0))
(assert
 (>= l_1_1_3 0.0))
(assert
 (>= l_1_1_4 0.0))
(assert
 (>= l_1_1_5 0.0))
(assert
 (>= l_1_1_6 0.0))
(assert
 (>= l_1_1_7 0.0))
(assert
 (>= l_1_1_8 0.0))
(assert
 (>= l_1_1_9 0.0))
(assert
 (>= l_1_1_10 0.0))
(assert
 (>= l_1_1_11 0.0))
(assert
 (>= l_1_1_12 0.0))
(assert
 (>= l_1_1_13 0.0))
(assert
 (>= l_1_1_14 0.0))
(assert
 (>= l_1_1_15 0.0))
(assert
 (>= l_1_1_17 0.0))
(assert
 (>= l_1_1_20 0.0))
(assert
 (let ((?x840 (* 2.0 l_1_2_3)))
 (let ((?x774 (* l_1_2_17 l_1_2_17)))
 (let ((?x180 (* l_1_2_16 l_1_2_16)))
 (let ((?x1034 (* (/ 81.0 1000000.0) _a_1_)))
 (let ((?x1035 (* (/ 81.0 100.0) _a_0_)))
 (let ((?x217 (* _a_0_ l_1_2_13)))
 (let ((?x1030 (- (- (- (* (- _a_0_) l_1_2_11) (* _a_0_ l_1_2_12)) ?x217) (* (* 2.0 _a_0_) l_1_2_2))))
 (let ((?x179 (- (+ (+ ?x1030 ?x1035) ?x1034) (* l_1_2_10 (- (* 1.0 _a_0_) 1.0)))))
 (let ((?x335 (+ (+ (+ (+ (- (- ?x179 ?x180) ?x774) ?x840) l_1_2_4) l_1_2_5) l_1_2_7)))
 (= (- ?x335 (* l_1_2_9 (- (* 1.0 _a_0_) 1.0))) 0.0)))))))))))
(assert
 (let ((?x142 (* (/ 81.0 5000.0) _a_1_)))
 (let ((?x143 (* (- (/ 81.0 5000.0)) _a_0_)))
 (let ((?x885 (+ ?x143 ?x142)))
 (let ((?x622 (- (- ?x885 (* (* 2.0 l_1_2_16) l_1_2_18)) (* (* 2.0 l_1_2_17) l_1_2_19))))
 (= ?x622 0.0))))))
(assert
 (let ((?x840 (* 2.0 l_1_2_3)))
 (let ((?x319 (* l_1_2_20 l_1_2_20)))
 (let ((?x317 (* l_1_2_19 l_1_2_19)))
 (let ((?x609 (* l_1_2_18 l_1_2_18)))
 (let ((?x600 (* (/ 81.0 100.0) _a_1_)))
 (let ((?x853 (* _a_1_ l_1_2_13)))
 (let ((?x752 (* _a_1_ l_1_2_12)))
 (let ((?x599 (- (- (- (- (* (/ 81.0 1000000.0) _a_0_) (* _a_1_ l_1_2_11)) ?x752) ?x853) (* (* 2.0 _a_1_) l_1_2_2))))
 (let ((?x315 (- (- (+ ?x599 ?x600) (* l_1_2_10 (- (* 1.0 _a_1_) 1.0))) ?x609)))
 (let ((?x330 (+ (+ (+ (+ (- (- ?x315 ?x317) ?x319) ?x840) l_1_2_4) l_1_2_5) l_1_2_7)))
 (= (- ?x330 (* l_1_2_9 (- (* 1.0 _a_1_) 1.0))) 0.0))))))))))))
(assert
 (let ((?x857 (* l_1_2_15 l_1_2_15)))
 (let ((?x128 (- (- (- (- l_1_2_1) (* 1.0 l_1_2_10)) (* 1.0 l_1_2_11)) (* 1.0 l_1_2_12))))
 (let ((?x762 (- (- (- (- ?x128 (* 1.0 l_1_2_13)) l_1_2_14) ?x857) (* 1.0 l_1_2_2))))
 (let ((?x534 (- (- (- ?x762 (* 1.0 l_1_2_3)) (* 1.0 l_1_2_4)) (* 1.0 l_1_2_5))))
 (let ((?x571 (- (- (- (- ?x534 l_1_2_6) (* 1.0 l_1_2_7)) l_1_2_8) (* 1.0 l_1_2_9))))
 (= (+ ?x571 1.0) 0.0)))))))
(assert
 (let ((?x702 (* _a_0_ l_1_2_9)))
 (let ((?x499 (* _a_0_ l_1_2_10)))
 (let ((?x472 (+ ?x499 ?x702)))
 (= (- (- ?x472 (* (* l_1_2_2 _a_0_) _a_0_)) l_1_2_3) 0.0)))))
(assert
 (let ((?x840 (* 2.0 l_1_2_3)))
 (let ((?x221 (- (* (* (* (- 2.0) _a_0_) _a_1_) l_1_2_2) (* l_1_2_10 (- (- _a_0_) _a_1_)))))
 (= (- (- ?x221 ?x840) (* l_1_2_9 (- (- _a_0_) _a_1_))) 0.0))))
(assert
 (let ((?x655 (- (+ (* _a_1_ l_1_2_10) (* _a_1_ l_1_2_9)) (* (* l_1_2_2 _a_1_) _a_1_))))
 (= (- ?x655 l_1_2_3) 0.0)))
(assert
 (= (* (* (- 2.0) l_1_2_15) l_1_2_16) 0.0))
(assert
 (= (* (* (- 2.0) l_1_2_15) l_1_2_18) 0.0))
(assert
 (>= l_1_2_1 0.0))
(assert
 (>= l_1_2_2 0.0))
(assert
 (>= l_1_2_3 0.0))
(assert
 (>= l_1_2_4 0.0))
(assert
 (>= l_1_2_5 0.0))
(assert
 (>= l_1_2_6 0.0))
(assert
 (>= l_1_2_7 0.0))
(assert
 (>= l_1_2_8 0.0))
(assert
 (>= l_1_2_9 0.0))
(assert
 (>= l_1_2_10 0.0))
(assert
 (>= l_1_2_11 0.0))
(assert
 (>= l_1_2_12 0.0))
(assert
 (>= l_1_2_13 0.0))
(assert
 (>= l_1_2_14 0.0))
(assert
 (>= l_1_2_15 0.0))
(assert
 (>= l_1_2_17 0.0))
(assert
 (>= l_1_2_20 0.0))
(check-sat)
(get-model)